1897313
57,8,16,26,44,67,34,50,38,61,36,52,13,56,17,9,43,49,27,35,58,15,62,20,2,29,40,63,33,45,54,25,65,10,5,55,41,60,23,46,19,3,47,1,64,12,53,0,11,31,39,4,18,48,22,59,28,24,37,66,6,42,32,51,21,30,7,14,57